Total weight: 1595.7919850217738
Route 1: 0 36 45 5 59 14 42 15 2 88 11 19 7 85 99 79 34 3 50 90 10 1 26 13 93 84 46 0 
Route 2: 0 33 65 29 76 18 6 94 8 49 48 21 56 25 55 24 80 0 
Route 3: 0 31 62 63 64 47 82 61 16 44 38 86 87 57 43 37 100 91 0 
Route 4: 0 40 95 92 83 52 12 67 23 98 96 97 58 53 0 
Route 5: 0 27 69 30 71 9 78 81 51 20 66 35 32 70 17 60 89 0 
Route 6: 0 28 39 72 73 75 41 22 74 4 54 68 77 0 
